
Gurobi 13.0.2 (win64) logging started Thu Jul 23 17:26:46 2026

Set parameter LogFile to value "E:\codes\ExactEBRP\results\gf_gurobi_performance_recovery_round29\runs\stage2__tight_T_seed5103__c3_replica__300s\external\native_logs\R.0.1.1.0.0.0.0.1.0.1_lp.gurobi.log"
Gurobi Optimizer version 13.0.2 build v13.0.2rc1 (win64 - Windows 10.0 (19045.2))

CPU model: 12th Gen Intel(R) Core(TM) i7-12700KF, instruction set [SSE2|AVX|AVX2]
Thread count: 12 physical cores, 20 logical processors, using up to 1 threads

Non-default parameters:
TimeLimit  167.8085537
MIPGap  0
MIPGapAbs  0
LogToConsole  0
Threads  1

Optimize a model with 11911 rows, 3376 columns and 67363 nonzeros (Min)
Model fingerprint: 0xf46ae988
Model has 21 linear objective coefficients
Coefficient statistics:
  Matrix range     [7e-03, 2e+04]
  Objective range  [7e-03, 1e+00]
  Bounds range     [1e-01, 3e+02]
  RHS range        [5e-02, 5e+04]

Presolve removed 1238 rows and 111 columns
Presolve time: 0.03s
Presolved: 10673 rows, 3266 columns, 61238 nonzeros

Iteration    Objective       Primal Inf.    Dual Inf.      Time
       0    1.1640028e-01   3.609247e+02   0.000000e+00      0s
    3186    1.6277526e-01   0.000000e+00   0.000000e+00      0s

Solved in 3186 iterations and 0.23 seconds (0.67 work units)
Optimal objective  1.627752627e-01

User-callback calls 3331, time in user-callback 0.00 sec
